\ENCODING=ISO-8859-1
\Problem name: 

Minimize
 obj: 14.7 x0,1,0 + 14.7 x0,1,1 + 19.1 x0,2,0 + 19.1 x0,2,1 + 0 x1,1,0
      + 0 x1,1,1 + 17.8 x1,2,0 + 17.8 x1,2,1 + 17.8 x2,1,0 + 17.8 x2,1,1
      + 0 x2,2,0 + 0 x2,2,1
Subject To
 c1:  x0,1,0 + x0,1,1 + x2,1,0 + x2,1,1  = 1
 c2:  x0,2,0 + x0,2,1 + x1,2,0 + x1,2,1  = 1
 c3:  x0,0,0 + x0,1,0 + x0,2,0  = 1
 c4:  x0,0,1 + x0,1,1 + x0,2,1  = 1
 c5:  x0,0,0 + x1,0,0 + x2,0,0  = 1
 c6:  x0,0,1 + x1,0,1 + x2,0,1  = 1
 c7:  x0,1,0 - x1,0,0 - x1,2,0 + x2,1,0  = 0
 c8:  x0,2,0 + x1,2,0 - x2,0,0 - x2,1,0  = 0
 c9:  x0,1,1 - x1,0,1 - x1,2,1 + x2,1,1  = 0
 c10: x0,2,1 + x1,2,1 - x2,0,1 - x2,1,1  = 0
 c11: x0,1,0 + x0,2,0 + x1,2,0 + x2,1,0 <= 4
 c12: x0,1,1 + x0,2,1 + x1,2,1 + x2,1,1 <= 4
 c13: 10000 x0,1,0 + w00 - w10 <= 9985.1
 c14: 1117 x0,1,0 - w00 <= 0
 c15: 10000 x0,2,0 + w00 - w20 <= 9980.7
 c16: 1119 x0,2,0 - w00 <= 0
 c17: 10000 x1,2,0 + w10 - w20 <= 9982
 c18: 1119 x1,2,0 - w00 <= 0
 c19: 10000 x2,1,0 - w10 + w20 <= 9982
 c20: 1117 x2,1,0 - w00 <= 0
 c21: 10000 x0,1,1 + w01 - w11 <= 9985.1
 c22: 1117 x0,1,1 - w01 <= 0
 c23: 10000 x0,2,1 + w01 - w21 <= 9980.7
 c24: 1119 x0,2,1 - w01 <= 0
 c25: 10000 x1,2,1 + w11 - w21 <= 9982
 c26: 1119 x1,2,1 - w01 <= 0
 c27: 10000 x2,1,1 - w11 + w21 <= 9982
 c28: 1117 x2,1,1 - w01 <= 0
 c29: 19.11 x1,0,0 + 19.11 x1,2,0 + w00 - w10 >= 0
 c30: 24.83 x2,0,0 + 24.83 x2,1,0 + w00 - w20 >= 0
 c31: 19.11 x1,0,1 + 19.11 x1,2,1 + w01 - w11 >= 0
 c32: 24.83 x2,0,1 + 24.83 x2,1,1 + w01 - w21 >= 0
Bounds
 0 <= x0,0,0 <= 1
 0 <= x0,0,1 <= 1
 0 <= x0,1,0 <= 1
 0 <= x0,1,1 <= 1
 0 <= x0,2,0 <= 1
 0 <= x0,2,1 <= 1
 0 <= x1,0,0 <= 1
 0 <= x1,0,1 <= 1
 0 <= x1,1,0 <= 1
 0 <= x1,1,1 <= 1
 0 <= x1,2,0 <= 1
 0 <= x1,2,1 <= 1
 0 <= x2,0,0 <= 1
 0 <= x2,0,1 <= 1
 0 <= x2,1,0 <= 1
 0 <= x2,1,1 <= 1
 0 <= x2,2,0 <= 1
 0 <= x2,2,1 <= 1
Generals
 x0,0,0  x0,0,1  x0,1,0  x0,1,1  x0,2,0  x0,2,1  x1,0,0  x1,0,1  x1,1,0 
 x1,1,1  x1,2,0  x1,2,1  x2,0,0  x2,0,1  x2,1,0  x2,1,1  x2,2,0  x2,2,1 
End
